5327,4865
1622,1350
3135,3800
200,197
4020,3884
8744,9029
9784,10090
3369,2450
6562,6114
7502,7592
4831,4160
3327,3685
1907,2322
1721,1156
7340,7697
7256,6617
255,1197
2064,2187
8967,8613
3656,3719
3307,2642
3986,4168
8192,7253
2694,1916
2570,1749
6165,5843
2696,2442
732,541
7757,6891
1043,505
9004,9760
7685,8004
1339,1988
5846,5488
7506,6895
2165,3018
5896,6192
5372,4817
7457,6996
2993,3145
2115,1949
4385,4265
8584,8808
5356,4927
1534,1970
9772,9718
5941,6535
4974,5125
1500,745
2812,2607

9651
27956
22355
5630
26135
2027
2242
15672
32022
24364
